NAME 
OBJSENSE MAX
ROWS
 N  OBJ
 L  packing[0]
 L  packing[1]
 L  packing[2]
 L  packing[3]
 L  packing[4]
 L  packing[5]
 L  packing[6]
 L  packing[7]
 L  packing[8]
 L  packing[9]
 L  packing[10]
 L  packing[11]
 L  packing[12]
 L  packing[13]
 L  packing[14]
 L  packing[15]
 L  packing[16]
 L  packing[17]
 L  packing[18]
 L  packing[19]
 L  packing[20]
 L  packing[21]
 L  packing[22]
 L  packing[23]
 L  packing[24]
 L  packing[25]
 L  packing[26]
 L  packing[27]
 L  packing[28]
 L  packing[29]
 L  packing[30]
 L  packing[31]
 L  packing[32]
 L  packing[33]
 L  packing[34]
 L  packing[35]
 L  packing[36]
 L  packing[37]
 L  packing[38]
 L  packing[39]
 L  packing[40]
 L  packing[41]
 L  packing[42]
 L  packing[43]
 L  packing[44]
 L  packing[45]
 L  packing[46]
 L  packing[47]
 L  packing[48]
 L  packing[49]
 L  R55     
COLUMNS
    MARKER    'MARKER'                 'INTORG'
    x[1]      OBJ       192
    x[1]      packing[0]  12
    x[1]      packing[1]  134
    x[1]      packing[2]  46
    x[1]      packing[3]  175
    x[1]      packing[4]  93
    x[1]      packing[7]  155
    x[1]      packing[8]  113
    x[1]      packing[9]  197
    x[1]      packing[10]  67
    x[1]      packing[11]  177
    x[1]      packing[13]  142
    x[1]      packing[17]  86
    x[1]      packing[18]  131
    x[1]      packing[19]  159
    x[1]      packing[20]  84
    x[1]      packing[22]  83
    x[1]      packing[24]  184
    x[1]      packing[26]  129
    x[1]      packing[27]  89
    x[1]      packing[28]  127
    x[1]      packing[29]  190
    x[1]      packing[30]  108
    x[1]      packing[31]  74
    x[1]      packing[32]  194
    x[1]      packing[33]  30
    x[1]      packing[34]  80
    x[1]      packing[35]  85
    x[1]      packing[36]  122
    x[1]      packing[37]  105
    x[1]      packing[38]  15
    x[1]      packing[39]  40
    x[1]      packing[40]  40
    x[1]      packing[41]  29
    x[1]      packing[42]  75
    x[1]      packing[44]  126
    x[1]      packing[46]  51
    x[1]      packing[47]  41
    x[1]      R55       1
    x[2]      OBJ       87
    x[2]      packing[0]  191
    x[2]      packing[1]  177
    x[2]      packing[2]  178
    x[2]      packing[3]  120
    x[2]      packing[5]  142
    x[2]      packing[6]  74
    x[2]      packing[8]  115
    x[2]      packing[9]  171
    x[2]      packing[10]  8
    x[2]      packing[11]  29
    x[2]      packing[12]  39
    x[2]      packing[14]  175
    x[2]      packing[15]  136
    x[2]      packing[16]  172
    x[2]      packing[17]  84
    x[2]      packing[19]  155
    x[2]      packing[20]  79
    x[2]      packing[21]  122
    x[2]      packing[22]  78
    x[2]      packing[25]  22
    x[2]      packing[26]  186
    x[2]      packing[27]  182
    x[2]      packing[28]  155
    x[2]      packing[30]  76
    x[2]      packing[32]  122
    x[2]      packing[34]  1
    x[2]      packing[35]  48
    x[2]      packing[37]  105
    x[2]      packing[38]  73
    x[2]      packing[39]  21
    x[2]      packing[40]  7
    x[2]      packing[42]  79
    x[2]      packing[43]  66
    x[2]      packing[44]  76
    x[2]      packing[45]  124
    x[2]      packing[46]  152
    x[2]      packing[49]  168
    x[3]      OBJ       91
    x[3]      packing[0]  10
    x[3]      packing[1]  43
    x[3]      packing[2]  74
    x[3]      packing[3]  84
    x[3]      packing[6]  105
    x[3]      packing[7]  172
    x[3]      packing[9]  128
    x[3]      packing[10]  59
    x[3]      packing[11]  42
    x[3]      packing[12]  190
    x[3]      packing[13]  105
    x[3]      packing[14]  152
    x[3]      packing[15]  69
    x[3]      packing[16]  75
    x[3]      packing[17]  81
    x[3]      packing[18]  30
    x[3]      packing[20]  22
    x[3]      packing[21]  121
    x[3]      packing[22]  88
    x[3]      packing[24]  10
    x[3]      packing[25]  154
    x[3]      packing[27]  153
    x[3]      packing[29]  195
    x[3]      packing[30]  68
    x[3]      packing[31]  36
    x[3]      packing[33]  163
    x[3]      packing[34]  11
    x[3]      packing[35]  55
    x[3]      packing[37]  180
    x[3]      packing[39]  70
    x[3]      packing[41]  74
    x[3]      packing[42]  38
    x[3]      packing[43]  10
    x[3]      packing[44]  1
    x[3]      packing[45]  148
    x[3]      packing[46]  94
    x[3]      packing[47]  89
    x[3]      packing[48]  95
    x[3]      packing[49]  50
    x[4]      OBJ       138
    x[4]      packing[2]  4
    x[4]      packing[3]  50
    x[4]      packing[4]  76
    x[4]      packing[5]  46
    x[4]      packing[6]  97
    x[4]      packing[7]  67
    x[4]      packing[8]  126
    x[4]      packing[9]  111
    x[4]      packing[11]  84
    x[4]      packing[12]  178
    x[4]      packing[15]  183
    x[4]      packing[16]  1
    x[4]      packing[17]  164
    x[4]      packing[18]  9
    x[4]      packing[19]  122
    x[4]      packing[20]  85
    x[4]      packing[21]  128
    x[4]      packing[24]  140
    x[4]      packing[25]  61
    x[4]      packing[26]  140
    x[4]      packing[28]  116
    x[4]      packing[30]  72
    x[4]      packing[31]  194
    x[4]      packing[33]  36
    x[4]      packing[35]  141
    x[4]      packing[37]  183
    x[4]      packing[38]  72
    x[4]      packing[39]  117
    x[4]      packing[41]  82
    x[4]      packing[42]  166
    x[4]      packing[43]  13
    x[4]      packing[44]  25
    x[4]      packing[45]  98
    x[4]      packing[47]  183
    x[4]      packing[48]  139
    x[4]      packing[49]  58
    x[4]      R55       1
    x[5]      OBJ       148
    x[5]      packing[0]  191
    x[5]      packing[1]  135
    x[5]      packing[2]  119
    x[5]      packing[3]  182
    x[5]      packing[5]  70
    x[5]      packing[7]  1
    x[5]      packing[8]  197
    x[5]      packing[9]  31
    x[5]      packing[12]  25
    x[5]      packing[14]  98
    x[5]      packing[16]  69
    x[5]      packing[17]  2
    x[5]      packing[18]  142
    x[5]      packing[19]  68
    x[5]      packing[21]  96
    x[5]      packing[22]  28
    x[5]      packing[23]  4
    x[5]      packing[24]  193
    x[5]      packing[26]  134
    x[5]      packing[28]  157
    x[5]      packing[29]  137
    x[5]      packing[30]  56
    x[5]      packing[31]  122
    x[5]      packing[36]  154
    x[5]      packing[37]  156
    x[5]      packing[39]  176
    x[5]      packing[40]  43
    x[5]      packing[41]  21
    x[5]      packing[42]  196
    x[5]      packing[44]  17
    x[5]      packing[45]  196
    x[5]      packing[47]  124
    x[5]      packing[49]  23
    x[5]      R55       1
    x[6]      OBJ       104
    x[6]      packing[3]  99
    x[6]      packing[4]  82
    x[6]      packing[5]  127
    x[6]      packing[6]  20
    x[6]      packing[7]  84
    x[6]      packing[9]  133
    x[6]      packing[10]  132
    x[6]      packing[11]  169
    x[6]      packing[12]  183
    x[6]      packing[13]  198
    x[6]      packing[15]  165
    x[6]      packing[16]  184
    x[6]      packing[19]  152
    x[6]      packing[23]  29
    x[6]      packing[24]  199
    x[6]      packing[26]  173
    x[6]      packing[28]  21
    x[6]      packing[29]  77
    x[6]      packing[30]  102
    x[6]      packing[31]  99
    x[6]      packing[33]  151
    x[6]      packing[37]  199
    x[6]      packing[38]  12
    x[6]      packing[39]  147
    x[6]      packing[40]  26
    x[6]      packing[41]  115
    x[6]      packing[42]  153
    x[6]      packing[43]  89
    x[6]      packing[44]  183
    x[6]      packing[45]  138
    x[6]      packing[46]  87
    x[6]      packing[47]  32
    x[6]      packing[48]  32
    x[7]      OBJ       106
    x[7]      packing[0]  88
    x[7]      packing[2]  148
    x[7]      packing[3]  62
    x[7]      packing[5]  89
    x[7]      packing[8]  89
    x[7]      packing[10]  166
    x[7]      packing[11]  182
    x[7]      packing[13]  44
    x[7]      packing[14]  159
    x[7]      packing[16]  16
    x[7]      packing[17]  137
    x[7]      packing[18]  56
    x[7]      packing[20]  158
    x[7]      packing[21]  68
    x[7]      packing[22]  172
    x[7]      packing[23]  141
    x[7]      packing[26]  103
    x[7]      packing[27]  94
    x[7]      packing[30]  46
    x[7]      packing[31]  182
    x[7]      packing[34]  118
    x[7]      packing[35]  131
    x[7]      packing[36]  122
    x[7]      packing[37]  10
    x[7]      packing[38]  64
    x[7]      packing[39]  25
    x[7]      packing[40]  45
    x[7]      packing[41]  149
    x[7]      packing[42]  7
    x[7]      packing[43]  121
    x[7]      packing[44]  184
    x[7]      packing[45]  120
    x[7]      packing[46]  96
    x[7]      packing[47]  132
    x[7]      packing[49]  135
    x[8]      OBJ       38
    x[8]      packing[0]  179
    x[8]      packing[1]  9
    x[8]      packing[2]  180
    x[8]      packing[3]  52
    x[8]      packing[4]  7
    x[8]      packing[5]  131
    x[8]      packing[6]  8
    x[8]      packing[7]  89
    x[8]      packing[8]  120
    x[8]      packing[11]  16
    x[8]      packing[12]  199
    x[8]      packing[13]  135
    x[8]      packing[14]  32
    x[8]      packing[15]  60
    x[8]      packing[16]  88
    x[8]      packing[17]  148
    x[8]      packing[18]  147
    x[8]      packing[20]  53
    x[8]      packing[21]  178
    x[8]      packing[25]  184
    x[8]      packing[26]  65
    x[8]      packing[27]  8
    x[8]      packing[28]  177
    x[8]      packing[29]  113
    x[8]      packing[30]  119
    x[8]      packing[31]  34
    x[8]      packing[32]  188
    x[8]      packing[34]  115
    x[8]      packing[35]  173
    x[8]      packing[36]  19
    x[8]      packing[38]  176
    x[8]      packing[40]  74
    x[8]      packing[41]  135
    x[8]      packing[43]  167
    x[8]      packing[45]  71
    x[8]      packing[46]  19
    x[8]      packing[48]  38
    x[8]      packing[49]  1
    x[9]      OBJ       107
    x[9]      packing[0]  41
    x[9]      packing[1]  5
    x[9]      packing[2]  123
    x[9]      packing[4]  147
    x[9]      packing[5]  66
    x[9]      packing[6]  59
    x[9]      packing[7]  113
    x[9]      packing[8]  139
    x[9]      packing[9]  136
    x[9]      packing[10]  194
    x[9]      packing[11]  40
    x[9]      packing[12]  196
    x[9]      packing[14]  6
    x[9]      packing[15]  167
    x[9]      packing[16]  100
    x[9]      packing[18]  90
    x[9]      packing[19]  93
    x[9]      packing[20]  17
    x[9]      packing[21]  20
    x[9]      packing[23]  170
    x[9]      packing[25]  123
    x[9]      packing[27]  196
    x[9]      packing[28]  184
    x[9]      packing[29]  90
    x[9]      packing[31]  30
    x[9]      packing[32]  111
    x[9]      packing[33]  144
    x[9]      packing[34]  77
    x[9]      packing[35]  169
    x[9]      packing[36]  74
    x[9]      packing[37]  9
    x[9]      packing[38]  185
    x[9]      packing[40]  73
    x[9]      packing[43]  57
    x[9]      packing[44]  144
    x[9]      packing[45]  128
    x[9]      packing[47]  17
    x[9]      packing[48]  21
    x[10]     OBJ       140
    x[10]     packing[0]  84
    x[10]     packing[1]  149
    x[10]     packing[2]  99
    x[10]     packing[3]  34
    x[10]     packing[4]  11
    x[10]     packing[5]  85
    x[10]     packing[6]  63
    x[10]     packing[7]  193
    x[10]     packing[8]  190
    x[10]     packing[9]  58
    x[10]     packing[10]  54
    x[10]     packing[11]  183
    x[10]     packing[13]  9
    x[10]     packing[14]  147
    x[10]     packing[17]  108
    x[10]     packing[18]  98
    x[10]     packing[19]  157
    x[10]     packing[20]  38
    x[10]     packing[22]  188
    x[10]     packing[23]  90
    x[10]     packing[24]  163
    x[10]     packing[25]  141
    x[10]     packing[27]  193
    x[10]     packing[28]  141
    x[10]     packing[29]  41
    x[10]     packing[30]  168
    x[10]     packing[31]  40
    x[10]     packing[32]  169
    x[10]     packing[33]  87
    x[10]     packing[34]  75
    x[10]     packing[38]  178
    x[10]     packing[39]  84
    x[10]     packing[40]  139
    x[10]     packing[41]  7
    x[10]     packing[42]  85
    x[10]     packing[43]  178
    x[10]     packing[44]  25
    x[10]     packing[45]  25
    x[10]     packing[46]  174
    x[10]     packing[47]  54
    x[10]     packing[48]  50
    x[10]     packing[49]  173
    x[11]     OBJ       147
    x[11]     packing[0]  154
    x[11]     packing[1]  157
    x[11]     packing[2]  173
    x[11]     packing[3]  167
    x[11]     packing[4]  33
    x[11]     packing[6]  3
    x[11]     packing[7]  99
    x[11]     packing[8]  172
    x[11]     packing[9]  88
    x[11]     packing[10]  143
    x[11]     packing[11]  131
    x[11]     packing[13]  156
    x[11]     packing[14]  73
    x[11]     packing[15]  145
    x[11]     packing[16]  177
    x[11]     packing[18]  124
    x[11]     packing[19]  58
    x[11]     packing[20]  114
    x[11]     packing[21]  145
    x[11]     packing[22]  64
    x[11]     packing[23]  154
    x[11]     packing[24]  39
    x[11]     packing[25]  95
    x[11]     packing[26]  172
    x[11]     packing[28]  171
    x[11]     packing[29]  85
    x[11]     packing[30]  89
    x[11]     packing[31]  166
    x[11]     packing[32]  199
    x[11]     packing[33]  16
    x[11]     packing[34]  74
    x[11]     packing[35]  85
    x[11]     packing[36]  16
    x[11]     packing[37]  97
    x[11]     packing[38]  21
    x[11]     packing[39]  168
    x[11]     packing[40]  124
    x[11]     packing[42]  17
    x[11]     packing[43]  108
    x[11]     packing[44]  82
    x[11]     packing[45]  58
    x[11]     packing[46]  63
    x[11]     packing[47]  42
    x[11]     packing[48]  193
    x[11]     packing[49]  116
    x[12]     OBJ       130
    x[12]     packing[0]  137
    x[12]     packing[1]  72
    x[12]     packing[2]  133
    x[12]     packing[4]  170
    x[12]     packing[5]  18
    x[12]     packing[6]  138
    x[12]     packing[7]  77
    x[12]     packing[8]  108
    x[12]     packing[9]  140
    x[12]     packing[10]  151
    x[12]     packing[11]  151
    x[12]     packing[12]  124
    x[12]     packing[13]  106
    x[12]     packing[14]  14
    x[12]     packing[15]  27
    x[12]     packing[16]  113
    x[12]     packing[17]  53
    x[12]     packing[19]  34
    x[12]     packing[20]  155
    x[12]     packing[21]  152
    x[12]     packing[22]  57
    x[12]     packing[26]  158
    x[12]     packing[27]  90
    x[12]     packing[28]  35
    x[12]     packing[29]  116
    x[12]     packing[30]  173
    x[12]     packing[32]  170
    x[12]     packing[33]  101
    x[12]     packing[34]  18
    x[12]     packing[35]  62
    x[12]     packing[37]  48
    x[12]     packing[39]  12
    x[12]     packing[40]  77
    x[12]     packing[41]  51
    x[12]     packing[43]  31
    x[12]     packing[44]  37
    x[13]     OBJ       184
    x[13]     packing[1]  198
    x[13]     packing[3]  123
    x[13]     packing[5]  78
    x[13]     packing[6]  51
    x[13]     packing[7]  114
    x[13]     packing[8]  46
    x[13]     packing[9]  50
    x[13]     packing[12]  162
    x[13]     packing[13]  109
    x[13]     packing[15]  40
    x[13]     packing[20]  190
    x[13]     packing[21]  59
    x[13]     packing[22]  11
    x[13]     packing[23]  53
    x[13]     packing[24]  142
    x[13]     packing[25]  101
    x[13]     packing[27]  188
    x[13]     packing[28]  132
    x[13]     packing[29]  5
    x[13]     packing[30]  75
    x[13]     packing[32]  158
    x[13]     packing[33]  135
    x[13]     packing[34]  187
    x[13]     packing[36]  72
    x[13]     packing[39]  23
    x[13]     packing[41]  171
    x[13]     packing[44]  84
    x[13]     packing[45]  159
    x[13]     packing[47]  199
    x[13]     packing[48]  11
    x[14]     OBJ       62
    x[14]     packing[0]  68
    x[14]     packing[1]  194
    x[14]     packing[2]  98
    x[14]     packing[3]  32
    x[14]     packing[4]  120
    x[14]     packing[5]  144
    x[14]     packing[6]  42
    x[14]     packing[7]  64
    x[14]     packing[8]  111
    x[14]     packing[9]  63
    x[14]     packing[11]  15
    x[14]     packing[13]  55
    x[14]     packing[14]  102
    x[14]     packing[15]  188
    x[14]     packing[16]  13
    x[14]     packing[17]  99
    x[14]     packing[18]  73
    x[14]     packing[19]  169
    x[14]     packing[20]  129
    x[14]     packing[21]  179
    x[14]     packing[27]  65
    x[14]     packing[28]  41
    x[14]     packing[30]  104
    x[14]     packing[32]  63
    x[14]     packing[35]  167
    x[14]     packing[36]  33
    x[14]     packing[38]  139
    x[14]     packing[39]  97
    x[14]     packing[40]  178
    x[14]     packing[41]  33
    x[14]     packing[42]  5
    x[14]     packing[43]  138
    x[14]     packing[44]  112
    x[14]     packing[45]  37
    x[14]     packing[46]  105
    x[14]     packing[48]  98
    x[15]     OBJ       33
    x[15]     packing[0]  140
    x[15]     packing[1]  47
    x[15]     packing[2]  125
    x[15]     packing[3]  159
    x[15]     packing[4]  88
    x[15]     packing[6]  146
    x[15]     packing[7]  68
    x[15]     packing[8]  168
    x[15]     packing[11]  32
    x[15]     packing[12]  34
    x[15]     packing[13]  153
    x[15]     packing[14]  8
    x[15]     packing[15]  116
    x[15]     packing[17]  31
    x[15]     packing[19]  141
    x[15]     packing[20]  93
    x[15]     packing[21]  73
    x[15]     packing[22]  16
    x[15]     packing[23]  103
    x[15]     packing[24]  122
    x[15]     packing[25]  152
    x[15]     packing[27]  195
    x[15]     packing[28]  135
    x[15]     packing[29]  24
    x[15]     packing[30]  182
    x[15]     packing[31]  74
    x[15]     packing[32]  142
    x[15]     packing[33]  149
    x[15]     packing[34]  82
    x[15]     packing[35]  190
    x[15]     packing[36]  159
    x[15]     packing[37]  5
    x[15]     packing[39]  82
    x[15]     packing[40]  102
    x[15]     packing[41]  191
    x[15]     packing[43]  112
    x[15]     packing[44]  123
    x[15]     packing[45]  43
    x[15]     packing[46]  106
    x[15]     packing[47]  6
    x[15]     packing[48]  197
    x[15]     packing[49]  108
    x[16]     OBJ       68
    x[16]     packing[0]  192
    x[16]     packing[3]  103
    x[16]     packing[5]  6
    x[16]     packing[7]  16
    x[16]     packing[8]  112
    x[16]     packing[10]  83
    x[16]     packing[11]  8
    x[16]     packing[12]  104
    x[16]     packing[13]  146
    x[16]     packing[16]  69
    x[16]     packing[17]  179
    x[16]     packing[18]  191
    x[16]     packing[21]  11
    x[16]     packing[22]  161
    x[16]     packing[23]  169
    x[16]     packing[24]  43
    x[16]     packing[25]  157
    x[16]     packing[26]  111
    x[16]     packing[27]  130
    x[16]     packing[29]  199
    x[16]     packing[30]  96
    x[16]     packing[33]  65
    x[16]     packing[35]  69
    x[16]     packing[37]  107
    x[16]     packing[39]  27
    x[16]     packing[40]  53
    x[16]     packing[41]  189
    x[16]     packing[43]  168
    x[16]     packing[44]  91
    x[16]     packing[45]  35
    x[16]     packing[46]  106
    x[16]     packing[47]  165
    x[16]     packing[48]  118
    x[16]     packing[49]  8
    x[17]     OBJ       83
    x[17]     packing[0]  98
    x[17]     packing[1]  96
    x[17]     packing[2]  56
    x[17]     packing[3]  109
    x[17]     packing[4]  133
    x[17]     packing[5]  11
    x[17]     packing[6]  7
    x[17]     packing[7]  69
    x[17]     packing[8]  164
    x[17]     packing[9]  81
    x[17]     packing[10]  21
    x[17]     packing[11]  151
    x[17]     packing[12]  156
    x[17]     packing[15]  149
    x[17]     packing[16]  1
    x[17]     packing[17]  84
    x[17]     packing[18]  1
    x[17]     packing[20]  27
    x[17]     packing[21]  7
    x[17]     packing[22]  141
    x[17]     packing[23]  157
    x[17]     packing[24]  194
    x[17]     packing[25]  20
    x[17]     packing[26]  31
    x[17]     packing[27]  44
    x[17]     packing[28]  3
    x[17]     packing[29]  181
    x[17]     packing[30]  47
    x[17]     packing[31]  44
    x[17]     packing[32]  76
    x[17]     packing[33]  125
    x[17]     packing[36]  110
    x[17]     packing[37]  95
    x[17]     packing[38]  179
    x[17]     packing[39]  26
    x[17]     packing[40]  79
    x[17]     packing[42]  52
    x[17]     packing[45]  144
    x[17]     packing[47]  112
    x[17]     packing[48]  95
    x[18]     OBJ       173
    x[18]     packing[0]  118
    x[18]     packing[2]  136
    x[18]     packing[3]  8
    x[18]     packing[5]  103
    x[18]     packing[6]  57
    x[18]     packing[8]  92
    x[18]     packing[9]  199
    x[18]     packing[10]  38
    x[18]     packing[11]  56
    x[18]     packing[13]  91
    x[18]     packing[15]  103
    x[18]     packing[18]  121
    x[18]     packing[19]  82
    x[18]     packing[20]  158
    x[18]     packing[21]  144
    x[18]     packing[22]  11
    x[18]     packing[23]  83
    x[18]     packing[24]  38
    x[18]     packing[25]  196
    x[18]     packing[26]  75
    x[18]     packing[27]  117
    x[18]     packing[28]  144
    x[18]     packing[30]  35
    x[18]     packing[31]  39
    x[18]     packing[32]  133
    x[18]     packing[33]  78
    x[18]     packing[34]  43
    x[18]     packing[35]  39
    x[18]     packing[36]  39
    x[18]     packing[37]  15
    x[18]     packing[39]  153
    x[18]     packing[40]  47
    x[18]     packing[41]  124
    x[18]     packing[42]  192
    x[18]     packing[43]  163
    x[18]     packing[44]  43
    x[18]     packing[46]  143
    x[18]     packing[48]  173
    x[18]     packing[49]  79
    x[18]     R55       1
    x[19]     OBJ       104
    x[19]     packing[0]  24
    x[19]     packing[1]  190
    x[19]     packing[2]  68
    x[19]     packing[4]  163
    x[19]     packing[5]  130
    x[19]     packing[6]  84
    x[19]     packing[9]  183
    x[19]     packing[11]  176
    x[19]     packing[12]  178
    x[19]     packing[15]  187
    x[19]     packing[16]  10
    x[19]     packing[17]  177
    x[19]     packing[19]  24
    x[19]     packing[21]  12
    x[19]     packing[22]  146
    x[19]     packing[23]  72
    x[19]     packing[24]  58
    x[19]     packing[25]  11
    x[19]     packing[26]  64
    x[19]     packing[27]  191
    x[19]     packing[28]  11
    x[19]     packing[29]  77
    x[19]     packing[30]  164
    x[19]     packing[32]  109
    x[19]     packing[33]  186
    x[19]     packing[36]  43
    x[19]     packing[37]  25
    x[19]     packing[39]  79
    x[19]     packing[40]  127
    x[19]     packing[41]  109
    x[19]     packing[42]  150
    x[19]     packing[43]  19
    x[19]     packing[45]  75
    x[19]     packing[46]  50
    x[19]     packing[47]  191
    x[19]     packing[48]  17
    x[19]     packing[49]  69
    x[20]     OBJ       54
    x[20]     packing[3]  59
    x[20]     packing[4]  165
    x[20]     packing[5]  41
    x[20]     packing[6]  174
    x[20]     packing[7]  173
    x[20]     packing[10]  9
    x[20]     packing[11]  172
    x[20]     packing[12]  38
    x[20]     packing[13]  71
    x[20]     packing[14]  74
    x[20]     packing[15]  163
    x[20]     packing[17]  191
    x[20]     packing[18]  40
    x[20]     packing[19]  150
    x[20]     packing[22]  85
    x[20]     packing[24]  97
    x[20]     packing[25]  127
    x[20]     packing[26]  3
    x[20]     packing[29]  85
    x[20]     packing[30]  179
    x[20]     packing[31]  115
    x[20]     packing[32]  120
    x[20]     packing[33]  33
    x[20]     packing[34]  172
    x[20]     packing[35]  80
    x[20]     packing[36]  159
    x[20]     packing[37]  20
    x[20]     packing[39]  48
    x[20]     packing[40]  78
    x[20]     packing[41]  113
    x[20]     packing[42]  12
    x[20]     packing[43]  199
    x[20]     packing[45]  30
    x[20]     packing[46]  195
    x[20]     packing[47]  57
    x[20]     packing[49]  28
    MARKER    'MARKER'                 'INTEND'
RHS
    RHS1      packing[0]  864
    RHS1      packing[1]  803
    RHS1      packing[2]  880
    RHS1      packing[3]  809
    RHS1      packing[4]  644
    RHS1      packing[5]  644
    RHS1      packing[6]  564
    RHS1      packing[7]  777
    RHS1      packing[8]  1031
    RHS1      packing[9]  885
    RHS1      packing[10]  563
    RHS1      packing[11]  907
    RHS1      packing[12]  903
    RHS1      packing[13]  760
    RHS1      packing[14]  520
    RHS1      packing[15]  949
    RHS1      packing[16]  544
    RHS1      packing[17]  812
    RHS1      packing[18]  627
    RHS1      packing[19]  782
    RHS1      packing[20]  701
    RHS1      packing[21]  758
    RHS1      packing[22]  665
    RHS1      packing[23]  613
    RHS1      packing[24]  811
    RHS1      packing[25]  772
    RHS1      packing[26]  772
    RHS1      packing[27]  968
    RHS1      packing[28]  875
    RHS1      packing[29]  808
    RHS1      packing[30]  980
    RHS1      packing[31]  625
    RHS1      packing[32]  977
    RHS1      packing[33]  750
    RHS1      packing[34]  527
    RHS1      packing[35]  747
    RHS1      packing[36]  561
    RHS1      packing[37]  680
    RHS1      packing[38]  557
    RHS1      packing[39]  698
    RHS1      packing[40]  656
    RHS1      packing[41]  797
    RHS1      packing[42]  614
    RHS1      packing[43]  820
    RHS1      packing[44]  677
    RHS1      packing[45]  815
    RHS1      packing[46]  721
    RHS1      packing[47]  722
    RHS1      packing[48]  639
    RHS1      packing[49]  508
    RHS1      R55       3
BOUNDS
 BV BND1      x[1]    
 BV BND1      x[2]    
 BV BND1      x[3]    
 BV BND1      x[4]    
 BV BND1      x[5]    
 BV BND1      x[6]    
 BV BND1      x[7]    
 BV BND1      x[8]    
 BV BND1      x[9]    
 BV BND1      x[10]   
 BV BND1      x[11]   
 BV BND1      x[12]   
 BV BND1      x[13]   
 BV BND1      x[14]   
 BV BND1      x[15]   
 BV BND1      x[16]   
 BV BND1      x[17]   
 BV BND1      x[18]   
 BV BND1      x[19]   
 BV BND1      x[20]   
ENDATA
